9408347.0
1447
0 2 4 5 6 10 11 14 16 17 18 19 20 21 25 26 28 30 31 33 36 37 40 41 42 43 44 45 47 48 49 52 53 58 59 63 64 66 68 70 72 73 74 79 81 84 85 89 90 94 98 100 101 103 106 107 108 111 116 117 122 123 124 125 126 127 129 130 133 135 138 139 141 142 148 149 151 152 153 154 155 158 163 164 165 168 169 171 172 176 177 178 179 184 185 187 188 189 191 192 193 194 197 199 